data/processed_heuristic-threshold/instances/1/7/ds_525_courier_1656/pairwise.tsp
NAME: ds_525_courier_1656
TYPE: TSP
COMMENT: nil
DIMENSION: 8
EDGE_WEIGHT_TYPE: EXPLICIT
EDGE_WEIGHT_FORMAT: FULL_MATRIX
EDGE_WEIGHT_SECTION
9999 3405 3308 3217 6354 985 2903 22 
3405 9999 119 191 2950 3534 790 3383 
3308 119 9999 135 3050 3422 779 3286 
3217 191 135 9999 3137 3364 645 3195 
6354 2950 3050 3137 9999 6432 3538 6332 
985 3534 3422 3364 6432 9999 3232 982 
2903 790 779 645 3538 3232 9999 2882 
22 3383 3286 3195 6332 982 2882 9999 
