data/processed_heuristic-threshold/instances/1/7/ds_525_courier_1656/pairwise.sol
8
0 7 6 4 1 2 3 5 
